65 28 34 26 
52 23 66 55 
69 12 9 10 17 
64 53 74 24 
63 33 30 50 25 
36 39 44 38 40 4 
45 5 2 7 6 8 3 60 
31 27 29 56 70 
14 47 11 73 46 1 
62 67 41 37 54 
15 57 49 20 58 
59 21 19 22 48 
72 42 71 43 35 
51 18 13 
16 68 
61 32 
75 

